15 2 
1874	1874	
569	308	330	
709	773	1355	
130	561	794	
191	841	1517	
435	156	173	
25	836	1289	
293	783	1410	
822	499	947	
357	291	482	
969	70	106	
605	369	508	
742	512	914	
237	235	404	
817	859	1674	
80	404	683	
